Set parameter Username
Academic license - for non-commercial use only - expires 2023-12-01
Set parameter TimeLimit to value 3600
Set parameter MIPGap to value 1e-06
Set parameter Threads to value 1
Set parameter NodefileStart to value 0.5
Set parameter NodefileDir to value "/home/jossian/Downloads"
Set parameter MIPGap to value 1e-06
Set parameter Threads to value 1
Set parameter NodefileDir to value "/home/jossian/Downloads"
Set parameter NodefileStart to value 0.5
Set parameter TimeLimit to value 3600
Gurobi Optimizer version 10.0.0 build v10.0.0rc2 (linux64)

CPU model: Intel(R) Core(TM) i5-1035G1 CPU @ 1.00GHz, instruction set [SSE2|AVX|AVX2|AVX512]
Thread count: 4 physical cores, 8 logical processors, using up to 1 threads

Optimize a model with 14851 rows, 5050 columns and 34750 nonzeros
Model fingerprint: 0x50d80cb3
Variable types: 0 continuous, 5050 integer (5050 binary)
Coefficient statistics:
  Matrix range     [1e+00, 2e+01]
  Objective range  [1e+00, 5e+01]
  Bounds range     [0e+00, 0e+00]
  RHS range        [1e+00, 9e+02]
Found heuristic solution: objective 15.0000000
Presolve removed 12332 rows and 3691 columns
Presolve time: 0.05s
Presolved: 2519 rows, 1359 columns, 5136 nonzeros
Variable types: 0 continuous, 1359 integer (1359 binary)
Found heuristic solution: objective 16273.000000

Root relaxation: objective 2.167773e+04, 2027 iterations, 0.04 seconds (0.05 work units)

    Nodes    |    Current Node    |     Objective Bounds      |     Work
 Expl Unexpl |  Obj  Depth IntInf | Incumbent    BestBd   Gap | It/Node Time

     0     0 21677.7260    0  151 16273.0000 21677.7260  33.2%     -    0s
H    0     0                    20977.000000 21677.7260  3.34%     -    0s
H    0     0                    21433.000000 21677.7260  1.14%     -    0s
     0     0 21668.2700    0  270 21433.0000 21668.2700  1.10%     -    0s
H    0     0                    21604.000000 21668.2700  0.30%     -    0s
     0     0 21665.8592    0  357 21604.0000 21665.8592  0.29%     -    0s
     0     0 21665.6902    0  357 21604.0000 21665.6902  0.29%     -    0s
     0     0 21665.6513    0  357 21604.0000 21665.6513  0.29%     -    0s
     0     0 21665.6212    0  357 21604.0000 21665.6212  0.29%     -    0s
     0     0 21665.6130    0  357 21604.0000 21665.6130  0.29%     -    0s
     0     0 21665.1752    0  357 21604.0000 21665.1752  0.28%     -    0s
     0     0 21663.0221    0  337 21604.0000 21663.0221  0.27%     -    0s
     0     0 21662.8488    0 1128 21604.0000 21662.8488  0.27%     -    0s
     0     0 21662.4281    0 1129 21604.0000 21662.4281  0.27%     -    0s
H    0     0                    21617.000000 21662.4281  0.21%     -    0s
     0     0 21662.0813    0 1129 21617.0000 21662.0813  0.21%     -    0s
     0     0 21661.7848    0  358 21617.0000 21661.7848  0.21%     -    0s
     0     0 21661.3968    0  359 21617.0000 21661.3968  0.21%     -    0s
     0     0 21661.3806    0  359 21617.0000 21661.3806  0.21%     -    0s
     0     0 21660.6222    0  297 21617.0000 21660.6222  0.20%     -    0s
     0     0 21660.3080    0  336 21617.0000 21660.3080  0.20%     -    0s
     0     0 21660.2441    0  336 21617.0000 21660.2441  0.20%     -    0s
     0     0 21659.9380    0 1160 21617.0000 21659.9380  0.20%     -    0s
     0     0 21659.9319    0 1160 21617.0000 21659.9319  0.20%     -    0s
     0     0 21659.8884    0 1181 21617.0000 21659.8884  0.20%     -    0s
     0     0 21659.8514    0  335 21617.0000 21659.8514  0.20%     -    0s
     0     0 21659.7946    0 1153 21617.0000 21659.7946  0.20%     -    0s
     0     0 21659.7746    0 1182 21617.0000 21659.7746  0.20%     -    0s
     0     0 21659.7359    0 1182 21617.0000 21659.7359  0.20%     -    0s
     0     0 21659.7335    0 1182 21617.0000 21659.7335  0.20%     -    0s
     0     0 21659.6853    0 1182 21617.0000 21659.6853  0.20%     -    0s
     0     0 21659.6853    0 1182 21617.0000 21659.6853  0.20%     -    0s
     0     0 21659.6853    0  105 21617.0000 21659.6853  0.20%     -    0s
     0     0 21659.6853    0  208 21617.0000 21659.6853  0.20%     -    0s
     0     0 21659.6853    0  209 21617.0000 21659.6853  0.20%     -    0s
     0     0 21659.0102    0  207 21617.0000 21659.0102  0.19%     -    0s
     0     0 21657.8095    0  222 21617.0000 21657.8095  0.19%     -    0s
     0     0 21657.5921    0  222 21617.0000 21657.5921  0.19%     -    0s
     0     0 21655.5991    0  198 21617.0000 21655.5991  0.18%     -    0s
     0     0 21655.5991    0   54 21617.0000 21655.5991  0.18%     -    0s
     0     0 21655.5991    0   83 21617.0000 21655.5991  0.18%     -    0s
     0     0 21655.5991    0  102 21617.0000 21655.5991  0.18%     -    0s
     0     0 21655.5991    0  104 21617.0000 21655.5991  0.18%     -    0s
     0     0 21655.4151    0   97 21617.0000 21655.4151  0.18%     -    0s
     0     0 21654.2150    0  117 21617.0000 21654.2150  0.17%     -    0s
     0     0 21653.4571    0  111 21617.0000 21653.4571  0.17%     -    0s
     0     0 21653.3781    0  111 21617.0000 21653.3781  0.17%     -    0s
     0     0 21653.3761    0  112 21617.0000 21653.3761  0.17%     -    0s
     0     0 21653.1573    0   92 21617.0000 21653.1573  0.17%     -    0s
     0     0 21653.0270    0  112 21617.0000 21653.0270  0.17%     -    0s
     0     0 21653.0200    0  112 21617.0000 21653.0200  0.17%     -    0s
     0     0 21653.0200    0  112 21617.0000 21653.0200  0.17%     -    0s
     0     0 21653.0200    0   32 21617.0000 21653.0200  0.17%     -    0s
     0     0 21653.0200    0   47 21617.0000 21653.0200  0.17%     -    0s
     0     0 21653.0200    0   59 21617.0000 21653.0200  0.17%     -    0s
     0     0 21653.0200    0   64 21617.0000 21653.0200  0.17%     -    0s
     0     0 21653.0200    0   62 21617.0000 21653.0200  0.17%     -    0s
     0     0 21653.0200    0   64 21617.0000 21653.0200  0.17%     -    0s
     0     0 21653.0200    0   63 21617.0000 21653.0200  0.17%     -    0s
     0     0 21653.0200    0   64 21617.0000 21653.0200  0.17%     -    0s
     0     0 21653.0200    0   65 21617.0000 21653.0200  0.17%     -    0s
     0     0 21653.0200    0   61 21617.0000 21653.0200  0.17%     -    0s
     0     0 21653.0200    0   64 21617.0000 21653.0200  0.17%     -    0s
     0     0 21653.0200    0   61 21617.0000 21653.0200  0.17%     -    0s
     0     0 21653.0200    0   61 21617.0000 21653.0200  0.17%     -    0s
     0     0 21653.0200    0   64 21617.0000 21653.0200  0.17%     -    0s
     0     0 21653.0200    0   64 21617.0000 21653.0200  0.17%     -    0s
     0     0 21653.0200    0   64 21617.0000 21653.0200  0.17%     -    0s
H    0     0                    21637.000000 21653.0200  0.07%     -    0s
     0     1 21651.6881    0   64 21637.0000 21651.6881  0.07%     -    0s

Cutting planes:
  Gomory: 4
  Lift-and-project: 2
  Zero half: 1
  Mod-K: 2
  RLT: 1

Explored 5 nodes (3610 simplex iterations) in 0.82 seconds (1.46 work units)
Thread count was 1 (of 8 available processors)

Solution count 7: 21637 21617 21604 ... 15

Optimal solution found (tolerance 1.00e-06)
Best objective 2.163700000000e+04, best bound 2.163700000000e+04, gap 0.0000%

User-callback calls 865, time in user-callback 0.00 sec
